nK = 612;
nT = 4;
nI = 7;
L = 29;
TT = 137;
np = 1;
nc = 3;
b = [47, 52, 38, 38, 40, 56, 62];
d = [92, 116, 99, 147, 126, 138, 150];
m = [2.2, 1.2, 1.7, 1.9, 2.2, 1.3, 1.5];
pt = [0.34, 0.21, 0.21, 0.32];
st = [18.02, 10.08, 8.4, 13.12];
arc = {<1, 0, 1, 1, 0, 0, 0, [1, 1, 1, 1]>, <2, 1, 2, 1, 0, 0, 0, [1, 1, 1, 1]>, <3, 2, 3, 1, 0, 0, 0, [1, 1, 1, 1]>, <4, 3, 4, 1, 0, 0, 0, [1, 1, 1, 1]>, <5, 4, 5, 1, 0, 0, 0, [1, 1, 1, 1]>, <6, 5, 6, 1, 0, 0, 0, [1, 1, 1, 1]>, <7, 6, 7, 1, 0, 0, 0, [1, 1, 1, 1]>, <8, 7, 8, 1, 0, 0, 0, [1, 1, 1, 1]>, <9, 8, 9, 1, 0, 0, 0, [1, 1, 1, 1]>, <10, 9, 10, 1, 0, 0, 0, [1, 1, 1, 1]>, <11, 10, 11, 1, 0, 0, 0, [1, 1, 1, 1]>, <12, 11, 12, 1, 0, 0, 0, [1, 1, 1, 1]>, <13, 12, 13, 1, 0, 0, 0, [1, 1, 1, 1]>, <14, 13, 14, 1, 0, 0, 0, [1, 1, 1, 1]>, <15, 14, 15, 1, 0, 0, 0, [1, 1, 1, 1]>, <16, 15, 16, 1, 0, 0, 0, [1, 1, 1, 1]>, <17, 16, 17, 1, 0, 0, 0, [1, 1, 1, 1]>, <18, 17, 18, 1, 0, 0, 0, [1, 1, 1, 1]>, <19, 18, 19, 1, 0, 0, 0, [1, 1, 1, 1]>, <20, 19, 20, 1, 0, 0, 0, [1, 1, 1, 1]>, <21, 20, 21, 1, 0, 0, 0, [1, 1, 1, 1]>, <22, 21, 22, 1, 0, 0, 0, [1, 1, 1, 1]>, <23, 22, 23, 1, 0, 0, 0, [1, 1, 1, 1]>, <24, 23, 24, 1, 0, 0, 0, [1, 1, 1, 1]>, <25, 24, 25, 1, 0, 0, 0, [1, 1, 1, 1]>, <26, 25, 26, 1, 0, 0, 0, [1, 1, 1, 1]>, <27, 26, 27, 1, 0, 0, 0, [1, 1, 1, 1]>, <28, 27, 28, 1, 0, 0, 0, [1, 1, 1, 1]>, <29, 28, 29, 1, 0, 0, 0, [1, 1, 1, 1]>, <30, 1, 12, 11, 1, 0, 0, [1, 0, 1, 1]>, <31, 2, 13, 11, 1, 0, 0, [1, 0, 1, 1]>, <32, 3, 14, 11, 1, 0, 0, [1, 0, 1, 1]>, <33, 4, 15, 11, 1, 0, 0, [1, 0, 1, 1]>, <34, 5, 16, 11, 1, 0, 0, [1, 0, 1, 1]>, <35, 9, 20, 11, 1, 0, 0, [1, 0, 1, 1]>, <36, 10, 21, 11, 1, 0, 0, [1, 0, 1, 1]>, <37, 11, 22, 11, 1, 0, 0, [1, 0, 1, 1]>, <38, 12, 23, 11, 1, 0, 0, [1, 0, 1, 1]>, <39, 13, 24, 11, 1, 0, 0, [1, 0, 1, 1]>, <40, 14, 25, 11, 1, 0, 0, [1, 0, 1, 1]>, <41, 15, 26, 11, 1, 0, 0, [1, 0, 1, 1]>, <42, 16, 27, 11, 1, 0, 0, [1, 0, 1, 1]>, <43, 17, 28, 11, 1, 0, 0, [1, 0, 1, 1]>, <44, 18, 29, 11, 1, 0, 0, [1, 0, 1, 1]>, <45, 4, 12, 8, 2, 1, 0, [1, 1, 0, 1]>, <46, 5, 13, 8, 2, 1, 0, [1, 1, 0, 1]>, <47, 11, 19, 8, 2, 1, 0, [1, 1, 0, 1]>, <48, 12, 20, 8, 2, 1, 0, [1, 1, 0, 1]>, <49, 16, 24, 8, 2, 1, 0, [1, 1, 0, 1]>, <50, 17, 25, 8, 2, 1, 0, [1, 1, 0, 1]>, <51, 18, 26, 8, 2, 1, 0, [1, 1, 0, 1]>, <52, 19, 27, 8, 2, 1, 0, [1, 1, 0, 1]>, <53, 20, 28, 8, 2, 1, 0, [1, 1, 0, 1]>, <54, 2, 12, 10, 3, 0, 0, [1, 0, 1, 1]>, <55, 3, 13, 10, 3, 0, 0, [1, 0, 1, 1]>, <56, 4, 14, 10, 3, 0, 0, [1, 0, 1, 1]>, <57, 5, 15, 10, 3, 0, 0, [1, 0, 1, 1]>, <58, 10, 20, 10, 3, 0, 0, [1, 0, 1, 1]>, <59, 11, 21, 10, 3, 0, 0, [1, 0, 1, 1]>, <60, 12, 22, 10, 3, 0, 0, [1, 0, 1, 1]>, <61, 14, 24, 10, 3, 0, 0, [1, 0, 1, 1]>, <62, 15, 25, 10, 3, 0, 0, [1, 0, 1, 1]>, <63, 16, 26, 10, 3, 0, 0, [1, 0, 1, 1]>, <64, 17, 27, 10, 3, 0, 0, [1, 0, 1, 1]>, <65, 18, 28, 10, 3, 0, 0, [1, 0, 1, 1]>, <66, 19, 29, 10, 3, 0, 0, [1, 0, 1, 1]>, <67, 3, 12, 9, 4, 1, 0, [0, 1, 1, 1]>, <68, 4, 13, 9, 4, 1, 0, [0, 1, 1, 1]>, <69, 5, 14, 9, 4, 1, 0, [0, 1, 1, 1]>, <70, 11, 20, 9, 4, 1, 0, [0, 1, 1, 1]>, <71, 12, 21, 9, 4, 1, 0, [0, 1, 1, 1]>, <72, 15, 24, 9, 4, 1, 0, [0, 1, 1, 1]>, <73, 16, 25, 9, 4, 1, 0, [0, 1, 1, 1]>, <74, 17, 26, 9, 4, 1, 0, [0, 1, 1, 1]>, <75, 18, 27, 9, 4, 1, 0, [0, 1, 1, 1]>, <76, 19, 28, 9, 4, 1, 0, [0, 1, 1, 1]>, <77, 20, 29, 9, 4, 1, 0, [0, 1, 1, 1]>, <78, 0, 12, 12, 5, 0, 1, [1, 1, 1, 0]>, <79, 1, 13, 12, 5, 0, 1, [1, 1, 1, 0]>, <80, 2, 14, 12, 5, 0, 1, [1, 1, 1, 0]>, <81, 3, 15, 12, 5, 0, 1, [1, 1, 1, 0]>, <82, 4, 16, 12, 5, 0, 1, [1, 1, 1, 0]>, <83, 5, 17, 12, 5, 0, 1, [1, 1, 1, 0]>, <84, 8, 20, 12, 5, 0, 1, [1, 1, 1, 0]>, <85, 9, 21, 12, 5, 0, 1, [1, 1, 1, 0]>, <86, 10, 22, 12, 5, 0, 1, [1, 1, 1, 0]>, <87, 11, 23, 12, 5, 0, 1, [1, 1, 1, 0]>, <88, 12, 24, 12, 5, 0, 1, [1, 1, 1, 0]>, <89, 13, 25, 12, 5, 0, 1, [1, 1, 1, 0]>, <90, 14, 26, 12, 5, 0, 1, [1, 1, 1, 0]>, <91, 15, 27, 12, 5, 0, 1, [1, 1, 1, 0]>, <92, 16, 28, 12, 5, 0, 1, [1, 1, 1, 0]>, <93, 17, 29, 12, 5, 0, 1, [1, 1, 1, 0]>, <94, 4, 12, 8, 6, 0, 0, [1, 1, 0, 1]>, <95, 5, 13, 8, 6, 0, 0, [1, 1, 0, 1]>, <96, 11, 19, 8, 6, 0, 0, [1, 1, 0, 1]>, <97, 12, 20, 8, 6, 0, 0, [1, 1, 0, 1]>, <98, 16, 24, 8, 6, 0, 0, [1, 1, 0, 1]>, <99, 17, 25, 8, 6, 0, 0, [1, 1, 0, 1]>, <100, 18, 26, 8, 6, 0, 0, [1, 1, 0, 1]>, <101, 19, 27, 8, 6, 0, 0, [1, 1, 0, 1]>, <102, 20, 28, 8, 6, 0, 0, [1, 1, 0, 1]>, <103, 2, 12, 10, 7, 0, 0, [1, 1, 1, 0]>, <104, 3, 13, 10, 7, 0, 0, [1, 1, 1, 0]>, <105, 4, 14, 10, 7, 0, 0, [1, 1, 1, 0]>, <106, 5, 15, 10, 7, 0, 0, [1, 1, 1, 0]>, <107, 10, 20, 10, 7, 0, 0, [1, 1, 1, 0]>, <108, 11, 21, 10, 7, 0, 0, [1, 1, 1, 0]>, <109, 12, 22, 10, 7, 0, 0, [1, 1, 1, 0]>, <110, 14, 24, 10, 7, 0, 0, [1, 1, 1, 0]>, <111, 15, 25, 10, 7, 0, 0, [1, 1, 1, 0]>, <112, 16, 26, 10, 7, 0, 0, [1, 1, 1, 0]>, <113, 17, 27, 10, 7, 0, 0, [1, 1, 1, 0]>, <114, 18, 28, 10, 7, 0, 0, [1, 1, 1, 0]>, <115, 19, 29, 10, 7, 0, 0, [1, 1, 1, 0]>};
